34969 39444 
34700 39878 
33838 40334 
34163 40209 
34357 40038 
34876 39625 
35798 39129 
35473 39254 
34634 39900 
33924 40318 
34115 40313 
34220 40105 
35305 39423 
34862 39679 
35333 39389 
34814 39802 
34431 40034 
32962 40890 
33433 40600 
33809 40389 
34134 40264 
33615 40560 
34286 40083 
33805 40502 
33422 40734 
32796 40925 
32453 40968 
33079 40777 
33455 40566 
